\ This file has been generated by DOcplex
\ ENCODING=ISO-8859-1
\Problem name: tiger problem

Minimize
 obj: V
Subject To
 c1: V - 7.993598649683 a1_0 - 8.752174771212 a1_1 - 6.019593395824 a1_2 >= 0
 c2: V - 8.904140790249 a1_0 - 9.719702736276 a1_1 - 7.280000000000 a1_2 >= 0
 c3: V - 6.334069723510 a1_0 - 7.280000000000 a1_1 - 10.280000000000 a1_2 >= 0
 c4: a1_0 + a1_1 + a1_2 = 1

Bounds
 0 <= a1_0 <= 1
 0 <= a1_1 <= 1
 0 <= a1_2 <= 1
       V Free

Binaries
 a1_0 a1_1 a1_2
End
